34887
0 0 1 0 1 0 0 0 0 0 1 1 0 0 0 0 0 1 1 1 1 0 0 0 0 0 0 0 0 0 
18 19 2 18 2 11 2 11 18 17 4 17 10 10 19 18 10 20 18 17 18 2 2 17 10 18 18 19 4 2 19 19 4 2 18 19 20 20 18 2 18 20 19 4 20 19 20 2 19 20 2 2 17 2 20 19 11 20 18 11 4 17 18 20 20 11 10 17 19 11 18 11 19 20 10 10 20 10 20 2 10 17 20 11 4 10 4 17 18 11 17 19 11 11 2 20 11 19 2 17 19 2 11 18 4 17 4 18 18 20 19 4 18 19 11 20 19 11 17 20 4 11 17 19 4 2 2 11 19 17 11 2 11 20 10 20 20 20 17 10 11 18 19 11 11 2 18 2 18 11 17 17 10 17 20 11 2 2 20 20 10 17 10 17 10 11 10 4 20 2 10 20 19 10 4 2 17 10 4 10 2 2 2 19 11 20 19 10 17 17 2 2 19 4 18 4 18 2 10 19 
